/*********************************************
 * OPL 22.1.1.0 Data
 * Author: filippostruffi
 * Creation Date: Feb 6, 2025 at 3:41:45 PM
 *********************************************/

tot_household = 2300;
min_30_household = 1000;
f31_t50_household = 600;
interview_cost=[7.5,6.8,5.5,6.9,7.25,6.1];